Cost: 386
0-26-7-35-53-14-19-8-46-34-0
0-12-40-17-0
0-30-2-28-22-1-23-33-6-0
0-52-15-20-37-47-21-48-29-4-0
0-10-39-9-25-32-44-3-51-0
Cost: 386
0-26-12-40-17-0
0-51-3-44-32-25-9-39-10-0
0-52-15-20-37-47-21-48-29-4-0
0-7-35-53-14-19-8-46-34-0
0-6-33-23-1-22-28-2-30-0
Cost: 386
0-26-7-35-53-14-19-8-46-34-0
0-12-40-17-0
0-30-2-28-22-1-23-33-6-0
0-52-15-20-37-47-21-48-29-4-0
0-10-39-9-25-32-44-3-51-0
Cost: 386
0-30-2-28-22-1-23-33-6-0
0-7-35-53-14-19-8-46-34-0
0-26-12-40-17-0
0-52-15-20-37-47-21-48-29-4-0
0-10-39-9-25-32-44-3-51-0
Cost: 386
0-6-33-23-1-22-28-2-30-0
0-26-7-35-53-14-19-8-46-34-0
0-10-39-9-25-32-44-3-51-0
0-17-40-12-0
0-52-15-20-37-47-21-48-29-4-0
Cost: 386
0-52-13-15-20-37-47-21-48-29-0
0-6-33-23-43-1-22-28-2-30-0
0-10-39-9-25-50-32-3-51-0
0-12-40-17-0
0-4-34-46-8-19-35-7-26-0
Cost: 386
0-26-12-40-17-0
0-6-33-23-1-22-28-2-30-0
0-10-39-9-25-32-44-3-51-0
0-52-15-20-37-47-21-48-29-4-0
0-34-46-8-19-14-53-35-7-0
Cost: 386
0-26-12-40-17-0
0-6-33-23-1-22-28-2-30-0
0-10-39-9-25-32-44-3-51-0
0-52-15-20-37-47-21-48-29-4-0
0-34-46-8-19-14-53-35-7-0
Cost: 386
0-26-12-40-17-0
0-6-33-23-1-22-28-2-30-0
0-10-39-9-25-32-44-3-51-0
0-52-15-20-37-47-21-48-29-4-0
0-34-46-8-19-14-53-35-7-0
Cost: 386
0-26-12-40-17-0
0-29-48-21-47-37-20-15-13-52-0
0-51-3-32-50-25-9-39-10-0
0-7-35-19-8-46-34-4-0
0-30-2-28-22-1-43-23-33-6-0
Cost: 386
0-7-35-19-8-46-34-4-0
0-29-48-21-47-37-20-15-13-52-0
0-51-3-32-50-25-9-39-10-0
0-6-33-23-43-1-22-28-2-30-0
0-26-12-40-17-0
Cost: 386
0-30-2-28-22-1-43-23-33-6-0
0-52-13-15-20-37-47-21-48-29-0
0-7-35-19-8-46-34-4-0
0-26-12-40-17-0
0-10-39-9-25-50-32-3-51-0
Cost: 386
0-17-40-12-26-0
0-7-35-19-8-46-34-4-0
0-6-33-23-43-1-22-28-2-30-0
0-29-48-21-47-37-20-15-13-52-0
0-10-39-9-25-50-32-3-51-0
Cost: 386
0-51-3-32-50-25-9-39-10-0
0-26-12-40-17-0
0-7-35-19-8-46-34-4-0
0-30-2-28-22-1-43-23-33-6-0
0-52-13-15-20-37-47-21-48-29-0
Cost: 386
0-51-3-32-50-25-9-39-10-0
0-26-12-40-17-0
0-52-13-15-20-37-47-21-48-29-0
0-6-33-23-43-1-22-28-2-30-0
0-7-35-19-8-46-34-4-0
Cost: 386
0-51-3-32-50-25-9-39-10-0
0-26-12-40-17-0
0-52-13-15-20-37-47-21-48-29-0
0-6-33-23-43-1-22-28-2-30-0
0-7-35-19-8-46-34-4-0
Cost: 386
0-34-46-8-19-14-53-35-7-0
0-10-39-9-25-32-44-3-51-0
0-4-29-48-21-47-37-20-15-52-0
0-30-2-28-22-1-23-33-6-0
0-17-40-12-26-0
Cost: 386
0-4-34-46-8-19-35-7-26-0
0-10-39-9-25-50-32-3-51-0
0-17-40-12-0
0-52-13-15-20-37-47-21-48-29-0
0-30-2-28-22-1-43-23-33-6-0
Cost: 386
0-4-29-48-21-47-37-20-15-52-0
0-51-3-44-32-25-9-39-10-0
0-26-12-40-17-0
0-7-35-53-14-19-8-46-34-0
0-30-2-28-22-1-23-33-6-0
Cost: 386
0-4-29-48-21-47-37-20-15-52-0
0-51-3-44-32-25-9-39-10-0
0-26-12-40-17-0
0-7-35-53-14-19-8-46-34-0
0-30-2-28-22-1-23-33-6-0
Cost: 386
0-51-3-44-32-25-9-39-10-0
0-4-29-48-21-47-37-20-15-52-0
0-34-46-8-19-14-53-35-7-26-0
0-12-40-17-0
0-6-33-23-1-22-28-2-30-0
Cost: 386
0-51-3-44-32-25-9-39-10-0
0-4-29-48-21-47-37-20-15-52-0
0-34-46-8-19-14-53-35-7-26-0
0-12-40-17-0
0-6-33-23-1-22-28-2-30-0
Cost: 386
0-4-29-48-21-47-37-20-15-52-0
0-26-12-40-17-0
0-7-35-53-14-19-8-46-34-0
0-51-3-44-32-25-9-39-10-0
0-6-33-23-1-22-28-2-30-0
Cost: 386
0-51-3-44-32-25-9-39-10-0
0-4-29-48-21-47-37-20-15-52-0
0-34-46-8-19-14-53-35-7-26-0
0-12-40-17-0
0-6-33-23-1-22-28-2-30-0
Cost: 386
0-4-34-46-8-19-35-7-26-0
0-10-39-9-25-50-32-3-51-0
0-17-40-12-0
0-52-13-15-20-37-47-21-48-29-0
0-30-2-28-22-1-43-23-33-6-0
Cost: 386
0-4-29-48-21-47-37-20-15-52-0
0-51-3-44-32-25-9-39-10-0
0-26-12-40-17-0
0-7-35-53-14-19-8-46-34-0
0-30-2-28-22-1-23-33-6-0
Cost: 386
0-4-34-46-8-19-35-7-0
0-30-2-28-22-1-43-23-33-6-0
0-29-48-21-47-37-20-15-13-52-0
0-10-39-9-25-50-32-3-51-0
0-17-40-12-26-0
Cost: 386
0-6-33-23-1-22-28-2-30-0
0-10-39-9-25-32-44-3-51-0
0-26-7-35-53-14-19-8-46-34-0
0-52-15-20-37-47-21-48-29-4-0
0-17-40-12-0
Cost: 387
0-4-29-15-20-37-47-21-30-0
0-26-10-39-9-32-44-3-51-0
0-17-40-12-0
0-7-35-53-14-19-8-46-52-34-0
0-6-33-49-24-23-1-22-28-2-0
Cost: 386
0-10-39-9-25-50-32-3-51-0
0-7-35-19-8-46-34-4-0
0-52-13-15-20-37-47-21-48-29-0
0-17-40-12-26-0
0-6-33-23-43-1-22-28-2-30-0
Cost: 386
0-10-39-9-25-50-32-3-51-0
0-29-48-21-47-37-20-15-13-52-0
0-6-33-23-43-1-22-28-2-30-0
0-26-7-35-19-8-46-34-4-0
0-12-40-17-0
